0010000000001111
0010000100001111
0001001000010000
1100000010000100
0000000000111110
0000000001000001
1111110101000001
1100010000100100
0000111100001111
0000111100001111
0100101000100000
1100000010000100
0000000000111110
0000000001000001
1111110101000001
1100010000100100
0000111100001111
0000111100001111
0100101000100000
1100000010000100
0000000000111110
0000000001000001
1111110101000001
1100010000100100
0000111100001111
0000111100001111
0100101000100000
1100000010000100
0000000000111110
0000000001000001
1111110101000001
1100010000100100
0000111100001111
0000111100001111
0100101000100000
1100000010000100
0000000000111110
0000000001000001
1111110101000001
1100010000100100
0000111100001111
0000111100001111
0100101000100000
1100000010000100
0000000000111110
0000000001000001
1111110101000001
1100010000100100
0000111100001111
0000111100001111
0100101000100000
1100000010000100
0000000000111110
0000000001000001
1111110101000001
1100010000100100
0000111100001111
0000111100001111
0100101000100000
1100000010000100
0000000000111110
0000000001000001
1111110101000001
0000000000111110